% Common parameter file

%%%%%%%%%%%%%%%%%%%%%%%%%
% Fix model flags by uncommenting a single line (see data.mzn)

% WVCP_M	= {                                             };
% WVCP_M	= {                   M_SR1,                    };
% WVCP_M	= {                   M_SR1,        M_SR2,      };
% WVCP_M	= {                   M_SR1,               M_DR2_v2};
% WVCP_M	= {                          M_DR1_v1,             };
% WVCP_M	= {                          M_DR1_v1, M_SR2,      };
% WVCP_M	= {                          M_DR1_v1,        M_DR2_v2};
% WVCP_M	= {                                 M_SR2,      };
WVCP_M	= {                                        M_DR2_v2};

% WVCP_M	= {        M_CLIQUES,                           };
% WVCP_M	= {        M_CLIQUES, M_SR1,                    };
% WVCP_M	= {        M_CLIQUES, M_SR1,        M_SR2,      };
% WVCP_M	= {        M_CLIQUES, M_SR1,               M_DR2_v2};
% WVCP_M	= {        M_CLIQUES,        M_DR1_v1,             };
% WVCP_M	= {        M_CLIQUES,        M_DR1_v1, M_SR2,      };
% WVCP_M	= {        M_CLIQUES,        M_DR1_v1,        M_DR2_v2};
% WVCP_M	= {        M_CLIQUES,               M_SR2,      };
% WVCP_M	= {        M_CLIQUES,                      M_DR2_v2};
